
  22   10
  10   10   10   10   10   10   10   10   10   10

   0   0   0   0   0   0   0   0   0   0   0   8 2 3 9 10 11 12 13 21 
   8   0   0   0   0   0   0   0  10   0   0   2 8 4 
   5   0   0   0   0   0  10   0   0   0   0   6 20 19 17 16 15 6 
  10   0  10   0   0   0   0   0   0   0   0   2 18 5 
   3   0   0   0   0   0   0   0  10   0   0   2 17 6 
  10   0  10   0   0   0   0   0   0   0   0   1 7 
   4   0   0  10   0   0   0   0   0   0   0   1 14 
   5   0   0   0   0  10   0   0   0   0   0   1 16 
   5   0   0   0   0   0   0   0   0  10   0   1 16 
   5   0   0   0   0   0  10   0   0   0   0   1 15 
   8  10   0   0   0   0   0   0   0   0   0   1 15 
   9   0   0   0   0  10   0   0   0   0   0   1 15 
  10   0   0  10   0   0   0   0   0   0   0   1 14 
   9   0   0  10   0   0   0   0   0   0   0   1 22
   9   0   0   0   0   0   0   0  10   0   0   1 22
   7   0   0   0   0   0   0   0   0  10   0   1 22
   8   0   0   0   0   0   0   0   0  10   0   1 22
   9   0   0   0   0   0   0   0  10   0   0   1 22
   1   0   0   0   0   0   0   0   0  10   0   1 22
   4   0   0   0   0   0   0   0   0   0  10   1 22
  10   0   0   0   0   0   0   0  10   0   0   1 22
   0   0   0   0   0   0   0   0   0   0   0   0 
